benchmarks_CP/INST_36x36/45/inst36x36_45_89.dzn
S=6;
start=[|
6,	23,	-1,	22,	-1,	29,	-1,	2,	30,	1,	-1,	18,	-1,	24,	-1,	8,	-1,	-1,	-1,	15,	21,	-1,	-1,	35,	26,	-1,	19,	-1,	-1,	-1,	-1,	5,	-1,	-1,	-1,	12|
-1,	13,	4,	30,	-1,	21,	8,	12,	-1,	-1,	28,	31,	-1,	14,	35,	-1,	-1,	-1,	-1,	-1,	-1,	-1,	-1,	33,	7,	27,	9,	10,	16,	23,	-1,	-1,	-1,	-1,	-1,	-1|
-1,	-1,	33,	-1,	17,	-1,	-1,	-1,	-1,	14,	26,	-1,	18,	-1,	-1,	4,	27,	20,	30,	-1,	23,	-1,	5,	3,	25,	-1,	-1,	-1,	-1,	-1,	24,	15,	31,	2,	-1,	-1|
26,	15,	28,	-1,	-1,	-1,	-1,	22,	-1,	-1,	-1,	-1,	-1,	7,	-1,	1,	33,	-1,	-1,	-1,	8,	4,	12,	-1,	17,	29,	20,	-1,	34,	-1,	27,	-1,	30,	-1,	-1,	-1|
-1,	-1,	-1,	10,	-1,	16,	-1,	24,	25,	33,	-1,	21,	-1,	-1,	-1,	-1,	5,	23,	-1,	6,	-1,	18,	-1,	-1,	22,	13,	1,	-1,	-1,	-1,	-1,	-1,	11,	8,	-1,	-1|
-1,	12,	-1,	-1,	-1,	-1,	-1,	-1,	5,	-1,	-1,	27,	21,	-1,	-1,	6,	-1,	22,	20,	14,	-1,	17,	-1,	9,	-1,	-1,	-1,	-1,	-1,	4,	34,	36,	-1,	-1,	-1,	-1|
-1,	16,	22,	3,	-1,	-1,	10,	34,	-1,	12,	4,	36,	31,	-1,	32,	14,	17,	-1,	-1,	-1,	-1,	-1,	30,	26,	9,	-1,	-1,	-1,	7,	-1,	-1,	-1,	20,	5,	15,	19|
25,	26,	34,	-1,	30,	-1,	-1,	-1,	1,	-1,	-1,	11,	-1,	5,	4,	-1,	6,	-1,	-1,	-1,	33,	-1,	-1,	-1,	-1,	-1,	-1,	-1,	-1,	17,	-1,	28,	18,	-1,	-1,	9|
-1,	-1,	23,	-1,	7,	12,	-1,	16,	-1,	27,	-1,	-1,	-1,	25,	-1,	19,	-1,	-1,	3,	28,	-1,	-1,	9,	-1,	4,	26,	-1,	33,	-1,	5,	-1,	-1,	36,	-1,	-1,	1|
-1,	24,	18,	19,	13,	6,	-1,	-1,	3,	-1,	15,	-1,	29,	23,	-1,	33,	-1,	-1,	-1,	-1,	-1,	-1,	35,	-1,	11,	-1,	-1,	16,	-1,	28,	26,	2,	27,	-1,	22,	32|
-1,	10,	35,	20,	1,	-1,	-1,	5,	8,	6,	-1,	-1,	-1,	12,	9,	-1,	16,	-1,	29,	34,	15,	36,	-1,	2,	19,	-1,	22,	13,	-1,	3,	-1,	-1,	17,	-1,	-1,	33|
-1,	5,	-1,	28,	-1,	-1,	-1,	26,	19,	-1,	20,	-1,	22,	11,	21,	7,	-1,	-1,	-1,	17,	-1,	10,	18,	32,	6,	-1,	30,	-1,	-1,	27,	4,	-1,	14,	16,	-1,	-1|
23,	-1,	2,	16,	28,	30,	6,	-1,	22,	-1,	29,	-1,	-1,	27,	-1,	-1,	-1,	-1,	34,	-1,	-1,	-1,	-1,	10,	-1,	-1,	-1,	-1,	-1,	32,	-1,	-1,	-1,	-1,	-1,	24|
3,	-1,	27,	12,	-1,	-1,	-1,	-1,	24,	25,	-1,	9,	-1,	-1,	-1,	13,	-1,	31,	8,	2,	-1,	-1,	-1,	-1,	29,	-1,	-1,	20,	17,	-1,	-1,	-1,	32,	-1,	11,	16|
17,	-1,	-1,	-1,	-1,	-1,	-1,	-1,	31,	-1,	-1,	20,	-1,	-1,	6,	-1,	34,	35,	-1,	27,	16,	-1,	29,	-1,	13,	-1,	11,	-1,	30,	-1,	-1,	-1,	-1,	-1,	-1,	22|
-1,	-1,	1,	6,	-1,	-1,	-1,	-1,	-1,	-1,	16,	-1,	32,	29,	10,	12,	-1,	18,	-1,	-1,	11,	-1,	25,	-1,	28,	-1,	-1,	2,	22,	-1,	13,	20,	35,	-1,	-1,	31|
22,	-1,	-1,	29,	-1,	-1,	-1,	-1,	33,	-1,	-1,	-1,	17,	-1,	-1,	-1,	7,	11,	32,	-1,	4,	35,	-1,	5,	-1,	15,	-1,	24,	-1,	-1,	30,	8,	-1,	-1,	-1,	-1|
13,	-1,	19,	11,	33,	-1,	-1,	35,	21,	-1,	8,	32,	-1,	-1,	-1,	-1,	-1,	30,	-1,	31,	3,	9,	17,	-1,	23,	-1,	7,	-1,	25,	34,	-1,	1,	-1,	-1,	-1,	10|
-1,	34,	17,	23,	3,	18,	-1,	-1,	10,	35,	11,	-1,	-1,	33,	26,	36,	15,	-1,	12,	30,	-1,	-1,	14,	1,	-1,	-1,	-1,	-1,	-1,	25,	-1,	9,	-1,	24,	-1,	-1|
12,	-1,	32,	-1,	-1,	-1,	-1,	-1,	-1,	-1,	30,	6,	4,	-1,	7,	-1,	22,	-1,	9,	-1,	10,	-1,	19,	29,	1,	-1,	21,	-1,	-1,	24,	25,	17,	8,	31,	20,	-1|
21,	-1,	-1,	-1,	-1,	8,	-1,	1,	14,	-1,	25,	22,	-1,	28,	18,	27,	-1,	-1,	5,	-1,	-1,	-1,	-1,	-1,	2,	-1,	-1,	17,	-1,	19,	29,	-1,	23,	10,	-1,	-1|
16,	9,	-1,	-1,	-1,	-1,	-1,	-1,	28,	8,	-1,	-1,	-1,	17,	-1,	24,	-1,	3,	21,	35,	-1,	-1,	-1,	27,	10,	-1,	-1,	-1,	-1,	-1,	1,	32,	-1,	4,	-1,	36|
28,	-1,	6,	1,	36,	-1,	27,	-1,	4,	-1,	21,	5,	14,	-1,	-1,	-1,	19,	10,	-1,	-1,	-1,	24,	-1,	18,	-1,	23,	-1,	-1,	3,	-1,	-1,	-1,	13,	-1,	-1,	35|
-1,	-1,	-1,	-1,	-1,	-1,	-1,	17,	-1,	16,	-1,	29,	-1,	1,	2,	32,	8,	21,	15,	23,	-1,	6,	3,	-1,	12,	-1,	18,	-1,	9,	30,	-1,	-1,	-1,	26,	-1,	-1|
-1,	-1,	12,	-1,	-1,	27,	32,	-1,	-1,	-1,	1,	-1,	10,	-1,	14,	-1,	-1,	-1,	-1,	-1,	-1,	-1,	-1,	-1,	-1,	-1,	17,	-1,	-1,	-1,	2,	-1,	-1,	6,	8,	20|
1,	-1,	20,	-1,	4,	-1,	16,	8,	-1,	-1,	-1,	-1,	15,	26,	-1,	-1,	-1,	7,	27,	-1,	-1,	12,	-1,	-1,	-1,	-1,	-1,	-1,	23,	-1,	-1,	-1,	33,	-1,	3,	-1|
-1,	29,	21,	-1,	31,	-1,	26,	-1,	-1,	-1,	-1,	-1,	-1,	30,	19,	25,	-1,	33,	-1,	-1,	7,	32,	-1,	23,	-1,	-1,	-1,	-1,	-1,	-1,	16,	-1,	-1,	-1,	-1,	-1|
2,	-1,	14,	-1,	-1,	-1,	30,	4,	18,	24,	-1,	10,	1,	-1,	13,	-1,	-1,	17,	-1,	20,	-1,	5,	15,	-1,	21,	-1,	3,	8,	19,	-1,	-1,	-1,	28,	36,	-1,	-1|
-1,	3,	7,	24,	-1,	33,	25,	6,	20,	-1,	-1,	-1,	35,	22,	-1,	34,	-1,	-1,	14,	9,	-1,	19,	-1,	-1,	5,	30,	27,	-1,	28,	-1,	10,	-1,	-1,	-1,	-1,	-1|
-1,	-1,	-1,	-1,	19,	-1,	-1,	21,	-1,	-1,	-1,	33,	-1,	-1,	-1,	20,	-1,	-1,	-1,	-1,	-1,	-1,	8,	22,	14,	1,	-1,	26,	18,	-1,	7,	12,	5,	15,	-1,	4|
19,	1,	36,	-1,	-1,	-1,	31,	-1,	-1,	-1,	-1,	8,	-1,	2,	-1,	-1,	21,	4,	28,	24,	-1,	-1,	-1,	-1,	-1,	20,	34,	-1,	-1,	22,	-1,	18,	29,	-1,	17,	-1|
-1,	2,	-1,	35,	18,	-1,	5,	-1,	7,	19,	12,	1,	13,	6,	11,	16,	-1,	15,	-1,	-1,	27,	-1,	-1,	-1,	32,	-1,	-1,	21,	-1,	-1,	-1,	-1,	26,	-1,	28,	-1|
-1,	-1,	5,	-1,	-1,	-1,	2,	-1,	-1,	-1,	-1,	-1,	7,	31,	-1,	23,	-1,	14,	-1,	-1,	-1,	-1,	-1,	-1,	-1,	9,	-1,	-1,	4,	35,	12,	-1,	-1,	21,	13,	15|
31,	-1,	30,	-1,	-1,	26,	24,	-1,	29,	-1,	-1,	-1,	-1,	8,	-1,	28,	-1,	19,	6,	-1,	17,	1,	-1,	15,	27,	7,	14,	23,	2,	-1,	-1,	16,	-1,	3,	-1,	-1|
-1,	-1,	-1,	13,	23,	28,	-1,	-1,	9,	-1,	-1,	-1,	27,	-1,	20,	22,	24,	26,	2,	-1,	-1,	-1,	-1,	8,	-1,	-1,	-1,	-1,	5,	-1,	31,	-1,	-1,	25,	1,	11|
-1,	-1,	15,	-1,	6,	-1,	35,	-1,	-1,	-1,	23,	4,	-1,	36,	3,	-1,	-1,	-1,	-1,	5,	12,	-1,	-1,	-1,	-1,	16,	-1,	25,	1,	-1,	-1,	19,	2,	-1,	-1,	-1|];
